15 7 3 16 17 12 8 10 1 19 4 2 9 13 18 0 11 5 6 14  
15 7 3 12 16 17 13 4 2 1 19 9 5 10 8 11 18 0 14 6  
15 7 3 16 17 12 8 10 1 19 4 9 2 13 18 11 5 0 14 6  
15 7 3 16 17 12 13 4 8 10 1 19 9 2 5 11 18 0 14 6  
15 7 3 16 17 12 8 10 1 19 4 2 13 9 5 11 18 0 14 6  
15 7 17 16 3 12 8 10 1 19 4 2 9 13 18 0 11 5 14 6  
15 7 17 16 3 12 13 4 2 1 19 10 8 9 5 11 18 0 14 6  
15 7 17 16 3 12 8 10 1 19 4 2 9 13 18 0 11 5 14 6  
15 7 3 16 17 12 8 10 1 19 4 2 9 13 18 0 11 5 6 14  
15 7 17 16 3 12 13 4 8 10 1 19 9 2 5 11 18 0 14 6  
15 7 17 16 3 12 13 4 2 1 19 8 10 9 5 11 18 0 14 6  
15 7 3 16 17 12 8 10 1 19 4 2 5 13 9 11 18 0 14 6  
15 7 3 16 17 12 8 10 1 19 4 2 9 13 18 0 11 5 6 14  
15 7 3 16 12 17 8 10 1 19 4 2 5 13 9 11 18 0 14 6  
15 7 3 16 17 12 8 10 1 19 4 2 13 9 18 0 11 5 14 6  
15 7 17 16 3 12 13 4 8 10 1 19 9 2 5 11 18 0 14 6  
15 7 3 16 17 12 8 10 1 19 4 2 13 9 5 11 18 0 14 6  
15 7 17 16 3 12 8 10 1 19 4 2 5 13 9 11 18 0 14 6  
15 7 3 16 17 12 8 10 1 19 4 9 2 13 18 11 5 0 14 6  
15 7 17 16 3 12 8 10 1 19 14 2 13 9 18 0 11 5 6 4  
15 7 3 16 17 12 8 10 1 19 4 2 5 13 9 11 18 0 14 6  
15 7 3 16 17 12 8 10 1 19 4 2 13 9 18 0 11 5 14 6  
15 7 3 17 16 12 13 4 2 1 19 8 10 9 11 5 18 0 14 6  
15 7 3 16 17 12 8 10 1 19 4 2 5 13 9 11 18 0 14 6  
15 7 3 12 16 17 13 4 2 1 19 8 11 9 10 5 18 0 14 6  
15 7 3 12 16 17 13 4 2 1 19 8 9 10 5 14 0 18 11 6  
15 7 17 16 3 12 13 4 2 1 19 9 8 10 5 0 14 18 11 6  
15 7 3 16 17 12 8 10 1 19 4 2 13 9 11 5 18 0 14 6  
15 7 3 16 17 12 8 10 1 19 4 9 2 13 18 11 5 0 14 6  
15 7 3 12 0 17 13 4 2 1 19 9 5 16 11 10 18 8 14 6  
